(declare-fun temp1810_2 () (_ BitVec 64))
(declare-fun temp1810_1 () (_ BitVec 64))
(declare-fun temp1810_3 () (_ BitVec 64))
(declare-fun var3802934 () (_ BitVec 64))
(declare-fun var4002012 () (_ BitVec 64))
(declare-fun temp1810_4 () (_ BitVec 64))
(declare-fun var4589547 () (_ BitVec 64))
(declare-fun ARGNAME_input_NAMEEND_DIM () (_ BitVec 64))
(declare-fun temp1810_6 () (_ BitVec 64))
(declare-fun temp1810_5 () (_ BitVec 64))
(declare-fun var4655991 () (_ BitVec 64))
(declare-fun temp1810_7 () (_ BitVec 64))
(declare-fun var4589608 () (_ BitVec 64))
(declare-fun var4589650 () (_ BitVec 64))
(declare-fun temp1810_9 () (_ BitVec 64))
(declare-fun temp1810_8 () (_ BitVec 64))
(declare-fun temp1810_10 () (_ BitVec 64))
(declare-fun var5180408 () (_ BitVec 64))
(declare-fun var4589595 () (_ BitVec 64))
(declare-fun var4589594 () (_ BitVec 64))
(declare-fun temp1810_11 () (_ BitVec 64))
(declare-fun var4589599 () (_ BitVec 64))
(declare-fun temp1810_12 () (_ BitVec 64))
(declare-fun var4589601 () (_ BitVec 64))
(declare-fun temp1810_13 () (_ BitVec 64))
(declare-fun temp1810_14 () (_ BitVec 64))
(declare-fun var5703886 () (_ BitVec 64))
(declare-fun temp1810_15 () (_ BitVec 64))
(declare-fun temp1810_16 () (_ BitVec 64))
(declare-fun var5703916 () (_ BitVec 64))
(declare-fun var5703963 () (_ BitVec 64))
(declare-fun var5703884 () (_ BitVec 64))
(declare-fun var532113 () (_ BitVec 64))
(declare-fun var532115 () (_ BitVec 64))
(declare-fun var6299359 () (_ BitVec 64))
(declare-fun temp1810_18 () (_ BitVec 64))
(declare-fun temp1810_17 () (_ BitVec 64))
(assert (= temp1810_2 #x0000000000000000))
(assert (= temp1810_1 temp1810_2))
(assert (= temp1810_3 #x0000000000000000))
(assert (= var3802934 temp1810_3))
(assert (= var4002012 var3802934))
(assert (= temp1810_4 #x0000000000000001))
(assert (= var4589547 (bvshl ARGNAME_input_NAMEEND_DIM temp1810_4)))
(assert (= temp1810_6 #x0000000000000000))
(assert (= temp1810_5 temp1810_6))
(assert (= var4655991 var4589547))
(assert (= temp1810_7 #x0000000000000000))
(assert (= var4589608 temp1810_7))
(assert (= var4589650 var4589608))
(assert (= temp1810_9 #x0000000000000000))
(assert (= temp1810_8 temp1810_9))
(assert (= temp1810_10 #x0000000000000001))
(assert (= var5180408 temp1810_10))
(assert (= var4589595 var4589650))
(assert (= var4589594 var4589595))
(assert (= temp1810_11 #x0000000000000001))
(assert (= var4589599 (bvand var4589594 temp1810_11)))
(assert (= temp1810_12 #x0000000000000000))
(assert (= var4589601
   (ite (= var4589599 temp1810_12) #x0000000000000001 #x0000000000000000)))
(assert (= temp1810_13 #x0000000000000001))
(assert (= var4589601 temp1810_13))
(assert (= temp1810_14 #x0000000000000001))
(assert (= var5703886 temp1810_14))
(assert (= temp1810_15 #x0000000000000000))
(assert (= temp1810_16 #x0000000000000002))
(assert (= var5703916 (ite (= var5703886 #x0000000000000001) temp1810_15 temp1810_16)))
(assert (= var5703963 var5703916))
(assert (= var5703884 var5703963))
(assert (= var532113 var5703884))
(assert (= var532115 var532113))
(assert (= var6299359 var532115))
(assert (= temp1810_18 #x0000000000000005))
(assert (= temp1810_17 temp1810_18))
(model-add temp1810_2 () (_ BitVec 64) #x0000000000000000)
(model-add temp1810_1 () (_ BitVec 64) #x0000000000000000)
(model-add temp1810_3 () (_ BitVec 64) #x0000000000000000)
(model-add var3802934 () (_ BitVec 64) #x0000000000000000)
(model-add var4002012 () (_ BitVec 64) #x0000000000000000)
(model-add temp1810_4 () (_ BitVec 64) #x0000000000000001)
(model-add var4589547
           ()
           (_ BitVec 64)
           (concat ((_ extract 62 0) ARGNAME_input_NAMEEND_DIM) #b0))
(model-add temp1810_6 () (_ BitVec 64) #x0000000000000000)
(model-add temp1810_5 () (_ BitVec 64) #x0000000000000000)
(model-add var4655991
           ()
           (_ BitVec 64)
           (concat ((_ extract 62 0) ARGNAME_input_NAMEEND_DIM) #b0))
(model-add temp1810_7 () (_ BitVec 64) #x0000000000000000)
(model-add var4589608 () (_ BitVec 64) #x0000000000000000)
(model-add var4589650 () (_ BitVec 64) #x0000000000000000)
(model-add temp1810_9 () (_ BitVec 64) #x0000000000000000)
(model-add temp1810_8 () (_ BitVec 64) #x0000000000000000)
(model-add temp1810_10 () (_ BitVec 64) #x0000000000000001)
(model-add var5180408 () (_ BitVec 64) #x0000000000000001)
(model-add var4589595 () (_ BitVec 64) #x0000000000000000)
(model-add var4589594 () (_ BitVec 64) #x0000000000000000)
(model-add temp1810_11 () (_ BitVec 64) #x0000000000000001)
(model-add var4589599 () (_ BitVec 64) #x0000000000000000)
(model-add temp1810_12 () (_ BitVec 64) #x0000000000000000)
(model-add var4589601 () (_ BitVec 64) #x0000000000000001)
(model-add temp1810_13 () (_ BitVec 64) #x0000000000000001)






